#Powered by MCPoly

! B3LYP def2-svp OPT 
%maxcore 5000
%PAL NPROCS 45 END

*xyz 0 1
C          1.57864        1.08777       -0.21203
C          1.02854        0.39484       -1.28321
H          0.24433       -0.33873       -1.16392
C          1.48680        0.62708       -2.58123
C          2.44732        1.61004       -2.85284
C          3.00152        2.36554       -1.79385
C          2.60293        2.04206       -0.47370
C          4.21603       -0.67263        3.32512
C          2.84664       -0.48825        2.96073
C          2.52993        0.59174        2.07080
C          3.58034        1.50188        1.71422
C          4.89177        1.33307        2.13795
H          5.67371        2.02622        1.84086
C          5.20356        0.23401        2.91957
C          3.18384        2.65426        0.79880
C          1.19032        0.95187        1.29851
C          0.85860        2.44768        1.76897
C          2.06978        3.39207        1.55033
H          1.05719        0.04232       -3.39297
H          6.24007        0.09185        3.22061
C         -0.24068        3.15362        0.98687
H          0.57962        2.45925        2.83104
C          1.55879        4.52191        0.70498
H          2.41817        3.79444        2.50995
N          0.25361        4.28561        0.40388
O         -1.40028        2.77571        0.90282
O          2.24639        5.44981        0.30505
C         -0.07171        0.07152        1.54913
C         -0.47150        5.05056       -0.59172
H          4.03990        3.30630        0.60771
C         -0.03836       -1.40298        1.13193
H         -0.63517       -1.57025        0.22986
H         -0.51316       -2.02538        1.89851
H          0.97196       -1.77567        0.94821
C         -1.19600        6.28076       -0.06948
O         -2.16228        6.61934       -0.97585
C         -2.81502        7.88257       -0.79117
C         -4.12266        7.84323       -1.56315
H         -2.16756        8.66138       -1.20771
H         -3.00806        8.09224        0.26593
H         -3.96970        7.45736       -2.57705
H         -4.57411        8.83735       -1.62611
H         -4.83326        7.16945       -1.07255
O         -0.91021        6.91892        0.93355
H         -1.21022        4.38939       -1.05711
H          0.23302        5.39134       -1.35853
H         -0.93115        0.49514        1.01990
H         -0.34286        0.14119        2.60977
C          1.94740       -1.41367        3.54778
C          2.36333       -2.51239        4.31161
C          4.62236       -1.77062        4.10368
C          3.70663       -2.70299        4.57330
H          0.87941       -1.29981        3.45138
H          1.62771       -3.21207        4.70040
H          5.67344       -1.91440        4.34844
H          4.04053       -3.55565        5.15751
C          2.84203        1.85698       -4.17704
C          3.73597        2.88178       -4.47708
C          4.24791        3.66865       -3.45398
C          3.89539        3.40740       -2.12722
H          4.30715        4.06048       -1.36232
H          4.92065        4.49084       -3.68380
H          2.44137        1.25706       -4.99159
H          4.01881        3.07255       -5.50867
*
