#Powered by MCPoly

! B3LYP def2-svp OPT 
%maxcore 5000
%PAL NPROCS 45 END
%geom
POTENTIALS
{C 30 37 2.000}
end
end

*xyz 0 1
  C   1.69072539321216      0.97436678345776     -0.47376278730942
  C   1.03819137270243      0.36049484852228     -1.57621651045388
  H   0.19090609271834     -0.30497460789740     -1.42276902627946
  C   1.45903153192442      0.60771284644969     -2.86628078773752
  C   2.53324836413353      1.49616782933289     -3.13795687555826
  C   3.16966542251379      2.17166843777662     -2.04004977934125
  C   2.71285636350452      1.88254783142707     -0.71821375910491
  C   4.11176108056711     -0.38431576189905      3.55045819867620
  C   2.77409915297111     -0.28847305069587      3.00350441340857
  C   2.55836745295408      0.59328646929529      1.87966052079203
  C   3.58983870025961      1.46387011974625      1.52915022100054
  C   4.88167470898824      1.39090375068580      2.09404179509049
  H   5.65725372593771      2.08331676638532      1.75542858678021
  C   5.15100979876382      0.44534944068462      3.05429680403000
  C   3.21039568382447      2.54392141369791      0.54370406014956
  C   1.27310466664521      0.82944008018960      1.01343777559899
  C   0.83492434024691      2.30269065561488      1.43204906108080
  C   1.99775252812793      3.29170106548182      1.19398890039787
  H   0.95562271351681      0.11938213708669     -3.70549292547199
  H   6.15298038371595      0.35058935847222      3.48158252294039
  C   -0.33380394509640      2.88837922692472      0.63498820759585
  H   0.52451372570765      2.27514302032973      2.48819746299517
  C   1.43455233745936      4.38009680472980      0.28996990745547
  H   2.33909754525512      3.76872530571512      2.12502507691992
  N   0.10780676474399      4.05645061934113      0.01293567101629
  O   -1.46072636236273      2.46100035730237      0.53427360430985
  O   2.01004428034768      5.34916701831876     -0.14429514749140
  C   0.09839414620027     -0.16209197832297      1.17093236896743
  C   -0.76371136721343      4.91145886187420     -0.75026388121779
  H   4.03264141622027      3.24812346152094      0.37700919537503
  C   0.37978573040889     -1.64324104887807      0.87743936287436
  H   0.73881116534115     -1.80701196410880     -0.14792246189463
  H   -0.54789007174323     -2.22681880010800      0.99748286684707
  H   1.13185863020026     -2.07989840975101      1.54733348380116
  C   -1.46264333073478      5.93535769322169      0.14246309820533
  O   -2.27576740002713      6.70610864422323     -0.58932740451774
  C   -3.01703600876078      7.72463619560761      0.11232858574505
  C   -3.92450307470350      8.41441714690468     -0.88442713758121
  H   -2.30231627779636      8.42436079776099      0.57619522956741
  H   -3.58252154767131      7.25007307250114      0.93043562415654
  H   -3.34149839353707      8.87924712964752     -1.69467461238972
  H   -4.50401122380040      9.20327300951621     -0.37945976668035
  H   -4.63190787413748      7.70010780644699     -1.33391798000962
  O   -1.30498913244352      6.03407854080876      1.33192061434054
  H   -1.52595392861321      4.29857367324555     -1.25321515052109
  H   -0.17264247910167      5.44489968024939     -1.50940001976331
  H   -0.70872496349622      0.18810527182279      0.51227832321453
  H   -0.33325793446230     -0.05001882443857      2.17722949690315
  C   1.76487542779520     -1.03808639189181      3.68659941890444
  C   2.05370688189485     -1.86383034397772      4.75366410940648
  C   4.38110873839378     -1.27508730722039      4.62961165552820
  C   3.38054410129096     -2.01109928132652      5.22111185347442
  H   0.72646475781694     -0.94079010520289      3.39092351646468
  H   1.24110227196579     -2.40488612659431      5.24599956771691
  H   5.40908550470283     -1.34143006637750      4.99740906679385
  H   3.60013831680979     -2.68144553038375      6.05597730662571
  C   2.97956750402863      1.75259520648240     -4.46546669773885
  C   4.00365345934267      2.64218826639385     -4.70917758955338
  C   4.62414378463200      3.32093595073287     -3.62988934957763
  C   4.21690881265839      3.09428792956445     -2.33161459592536
  H   4.70304908183189      3.63503245856970     -1.51834525983045
  H   5.43032634166517      4.03174417205841     -3.82962846876882
  H   2.49042843174030      1.22973115250025     -5.29246608947182
  H   4.33734668001948      2.83073129045247     -5.73302347096059
*
